c description: There is a graph of 6 vertices with a 2-clique and a 4-coloring
c generator: CNFgen (0.9.0)
c copyright: (C) 2012-2020 Massimo Lauria <massimo.lauria@uniroma1.it>
c url: https://massimolauria.net/cnfgen
c
p cnf 51 170
-16 -17 0
-16 -18 0
-16 -19 0
-16 -20 0
-16 -21 0
-17 -18 0
-17 -19 0
-17 -20 0
-17 -21 0
-18 -19 0
-18 -20 0
-18 -21 0
-19 -20 0
-19 -21 0
-20 -21 0
16 17 18 19 20 21 0
-22 -23 0
-22 -24 0
-22 -25 0
-22 -26 0
-22 -27 0
-23 -24 0
-23 -25 0
-23 -26 0
-23 -27 0
-24 -25 0
-24 -26 0
-24 -27 0
-25 -26 0
-25 -27 0
-26 -27 0
22 23 24 25 26 27 0
-16 -22 0
-17 -23 0
-18 -24 0
-19 -25 0
-20 -26 0
-21 -27 0
1 -16 -23 0
1 -22 -17 0
2 -16 -24 0
2 -22 -18 0
3 -16 -25 0
3 -22 -19 0
4 -16 -26 0
4 -22 -20 0
5 -16 -27 0
5 -22 -21 0
6 -17 -24 0
6 -23 -18 0
7 -17 -25 0
7 -23 -19 0
8 -17 -26 0
8 -23 -20 0
9 -17 -27 0
9 -23 -21 0
10 -18 -25 0
10 -24 -19 0
11 -18 -26 0
11 -24 -20 0
12 -18 -27 0
12 -24 -21 0
13 -19 -26 0
13 -25 -20 0
14 -19 -27 0
14 -25 -21 0
15 -20 -27 0
15 -26 -21 0
-28 -29 0
-28 -30 0
-28 -31 0
-29 -30 0
-29 -31 0
-30 -31 0
28 29 30 31 0
-32 -33 0
-32 -34 0
-32 -35 0
-33 -34 0
-33 -35 0
-34 -35 0
32 33 34 35 0
-36 -37 0
-36 -38 0
-36 -39 0
-37 -38 0
-37 -39 0
-38 -39 0
36 37 38 39 0
-40 -41 0
-40 -42 0
-40 -43 0
-41 -42 0
-41 -43 0
-42 -43 0
40 41 42 43 0
-44 -45 0
-44 -46 0
-44 -47 0
-45 -46 0
-45 -47 0
-46 -47 0
44 45 46 47 0
-48 -49 0
-48 -50 0
-48 -51 0
-49 -50 0
-49 -51 0
-50 -51 0
48 49 50 51 0
-1 -28 -32 0
-1 -29 -33 0
-1 -30 -34 0
-1 -31 -35 0
-2 -28 -36 0
-2 -29 -37 0
-2 -30 -38 0
-2 -31 -39 0
-3 -28 -40 0
-3 -29 -41 0
-3 -30 -42 0
-3 -31 -43 0
-4 -28 -44 0
-4 -29 -45 0
-4 -30 -46 0
-4 -31 -47 0
-5 -28 -48 0
-5 -29 -49 0
-5 -30 -50 0
-5 -31 -51 0
-6 -32 -36 0
-6 -33 -37 0
-6 -34 -38 0
-6 -35 -39 0
-7 -32 -40 0
-7 -33 -41 0
-7 -34 -42 0
-7 -35 -43 0
-8 -32 -44 0
-8 -33 -45 0
-8 -34 -46 0
-8 -35 -47 0
-9 -32 -48 0
-9 -33 -49 0
-9 -34 -50 0
-9 -35 -51 0
-10 -36 -40 0
-10 -37 -41 0
-10 -38 -42 0
-10 -39 -43 0
-11 -36 -44 0
-11 -37 -45 0
-11 -38 -46 0
-11 -39 -47 0
-12 -36 -48 0
-12 -37 -49 0
-12 -38 -50 0
-12 -39 -51 0
-13 -40 -44 0
-13 -41 -45 0
-13 -42 -46 0
-13 -43 -47 0
-14 -40 -48 0
-14 -41 -49 0
-14 -42 -50 0
-14 -43 -51 0
-15 -44 -48 0
-15 -45 -49 0
-15 -46 -50 0
-15 -47 -51 0